submitit INFO (2023-04-29 16:24:10,923) - Starting with JobEnvironment(job_id=27454, hostname=cpunode3, local_rank=1(5), node=0(1), global_rank=1(5))
submitit INFO (2023-04-29 16:24:10,923) - Loading pickle: /h/30/pashootan/Matrix-Mult-CP/src/../logs/2x2x2_1_Apr29_16:24:09/27454_submitted.pkl
/h/30/pashootan/Matrix-Mult-CP/src/model/cp_opt.py:65(stream:108:18): Warning: The constraint is always false, the model is infeasible.
                                                                                 sum([abs(W0_0)]) >= 2
/h/30/pashootan/Matrix-Mult-CP/src/model/cp_opt.py:65(stream:114:18): Warning: The constraint is always false, the model is infeasible.
                                                                                 sum([abs(W0_1)]) >= 2
/h/30/pashootan/Matrix-Mult-CP/src/model/cp_opt.py:65(stream:120:18): Warning: The constraint is always false, the model is infeasible.
                                                                                 sum([abs(W0_2)]) >= 2
/h/30/pashootan/Matrix-Mult-CP/src/model/cp_opt.py:65(stream:126:18): Warning: The constraint is always false, the model is infeasible.
                                                                                 sum([abs(W0_3)]) >= 2
 ! --------------------------------------------------- CP Optimizer 22.1.1.0 --
 ! Satisfiability problem - 12 variables, 92 constraints
 ! TimeLimit            = 172800
 ! Workers              = 8
 ! LogPeriod            = 10000000
 ! RandomSeed           = 2381
 ! Initial process time : 0.00s (0.00s extraction + 0.00s propagation)
 !  . Log search space  : 17.8 (before), 17.8 (after)
 !  . Memory usage      : 267.4 kB (before), 267.4 kB (after)
 ! Using parallel search with 8 workers.
 ! ----------------------------------------------------------------------------
 !               Branches  Non-fixed    W       Branch decision
 ! ----------------------------------------------------------------------------
 ! Search completed, model has no solution.
 ! ----------------------------------------------------------------------------
 ! Number of branches     : 0
 ! Number of fails        : 0
 ! Total memory usage     : 715.4 kB (675.0 kB CP Optimizer + 40.4 kB Concert)
 ! Time spent in solve    : 0.00s (0.00s engine + 0.00s extraction)
 ! ----------------------------------------------------------------------------
Infeasible
Saving stats to: /h/30/pashootan/Matrix-Mult-CP/logs/2x2x2_1_Apr29_16:24:09/27454_1_stats.csv
submitit INFO (2023-04-29 16:24:11,532) - Job completed successfully
